p cnf 163 414
a 3 6 12 14 17 20 2 37 43 45 48 51 58 60 63 66 1 11 26 33 42 57 0
d 87 17 20 0
d 97 26 33 0
d 93 1 11 0
d 157 42 57 0
d 4 3 0
d 5 2 3 0
d 7 6 0
d 8 2 3 6 0
d 9 1 2 3 6 0
d 10 1 2 3 6 0
d 13 12 0
d 15 14 0
d 16 12 14 0
d 18 17 0
d 19 12 14 17 0
d 21 20 0
d 22 12 14 17 20 0
d 23 11 12 14 17 20 0
d 24 11 12 14 17 20 0
d 25 1 2 3 6 11 12 14 17 20 0
d 27 3 6 0
d 28 3 6 12 0
d 29 3 6 12 14 0
d 30 26 3 6 12 14 0
d 31 26 3 6 12 14 0
d 32 1 2 3 6 11 12 14 17 20 26 0
d 34 17 20 0
d 35 2 0
d 36 17 20 2 0
d 38 17 20 2 37 0
d 39 33 17 20 2 37 0
d 40 33 17 20 2 37 0
d 41 1 2 3 6 11 12 14 17 20 26 33 37 0
d 44 43 0
d 46 45 0
d 47 43 45 0
d 49 48 0
d 50 43 45 48 0
d 52 51 0
d 53 43 45 48 51 0
d 54 42 43 45 48 51 0
d 55 42 43 45 48 51 0
d 56 1 2 3 6 11 12 14 17 20 26 33 37 42 43 45 48 51 0
d 59 58 0
d 61 60 0
d 62 58 60 0
d 64 63 0
d 65 58 60 63 0
d 67 58 60 63 66 0
d 68 57 58 60 63 66 0
d 69 57 58 60 63 66 0
d 70 1 2 3 6 11 12 14 17 20 26 33 37 42 43 45 48 51 57 58 60 63 66 0
d 71 3 0
d 72 3 6 0
d 73 3 6 0
d 74 3 6 0
d 75 12 3 0
d 76 12 3 6 0
d 77 12 3 6 0
d 78 3 6 12 0
d 79 3 6 12 14 0
d 80 3 6 12 14 0
d 81 3 6 12 14 0
d 82 17 3 0
d 83 17 3 6 0
d 84 12 14 17 3 6 0
d 85 12 14 17 3 6 0
d 86 3 6 12 14 17 0
d 88 17 20 3 6 12 14 0
d 89 17 20 0
d 90 17 20 3 6 12 14 0
d 91 17 20 3 6 12 14 0
d 92 3 6 12 14 17 20 0
d 94 2 3 6 12 14 17 20 0
d 95 1 11 2 3 6 12 14 17 20 0
d 96 3 6 12 14 17 20 1 11 2 0
d 98 3 6 12 14 17 20 2 37 0
d 99 26 33 3 6 12 14 17 20 2 37 0
d 100 3 6 12 14 17 20 1 11 2 26 33 37 0
d 101 37 0
d 102 2 37 0
d 103 43 3 0
d 104 43 3 6 0
d 105 2 37 43 3 6 0
d 106 12 14 17 20 2 37 43 3 6 0
d 107 12 14 17 20 2 37 43 3 6 0
d 108 3 6 12 14 17 20 1 11 2 26 33 37 43 0
d 109 17 20 2 37 0
d 110 43 45 0
d 111 43 45 3 6 12 14 0
d 112 17 20 2 37 43 45 3 6 12 14 0
d 113 17 20 2 37 0
d 114 17 20 2 37 43 45 3 6 12 14 0
d 115 17 20 2 37 43 45 3 6 12 14 0
d 116 3 6 12 14 17 20 1 11 2 26 33 37 43 45 0
d 117 2 37 43 0
d 118 2 37 43 45 0
d 119 48 3 0
d 120 48 3 6 0
d 121 48 3 6 12 14 17 20 0
d 122 2 37 43 45 48 3 6 12 14 17 20 0
d 123 2 37 43 45 48 3 6 12 14 17 20 0
d 124 3 6 12 14 17 20 1 11 2 26 33 37 43 45 48 0
d 125 43 45 48 51 0
d 126 3 6 12 14 17 20 2 37 0
d 127 43 45 48 51 3 6 12 14 17 20 2 37 0
d 128 3 6 12 14 17 20 2 37 0
d 129 43 45 48 51 3 6 12 14 17 20 2 37 0
d 130 43 45 48 51 3 6 12 14 17 20 2 37 0
d 131 3 6 12 14 17 20 1 11 2 26 33 37 43 45 48 51 0
d 132 48 51 0
d 133 58 3 0
d 134 58 3 6 0
d 135 48 51 58 3 6 0
d 136 12 14 17 20 2 37 43 45 0
d 137 48 51 58 3 6 12 14 17 20 2 37 43 45 0
d 138 48 51 58 3 6 12 14 17 20 2 37 43 45 0
d 139 3 6 12 14 17 20 1 11 2 26 33 37 43 45 48 51 58 0
d 140 58 60 0
d 141 58 60 3 6 12 14 0
d 142 17 20 2 37 43 45 48 51 0
d 143 58 60 3 6 12 14 17 20 2 37 43 45 48 51 0
d 144 17 20 2 37 43 45 48 51 0
d 145 58 60 3 6 12 14 17 20 2 37 43 45 48 51 0
d 146 58 60 3 6 12 14 17 20 2 37 43 45 48 51 0
d 147 3 6 12 14 17 20 1 11 2 26 33 37 43 45 48 51 58 60 0
d 148 63 3 0
d 149 63 3 6 0
d 150 63 3 6 12 14 17 20 0
d 151 48 51 58 0
d 152 48 51 58 60 0
d 153 2 37 43 45 48 51 58 60 0
d 154 63 3 6 12 14 17 20 2 37 43 45 48 51 58 60 0
d 155 63 3 6 12 14 17 20 2 37 43 45 48 51 58 60 0
d 156 3 6 12 14 17 20 1 11 2 26 33 37 43 45 48 51 58 60 63 0
d 158 3 6 12 14 17 20 2 37 42 57 0
d 159 43 45 48 51 58 60 63 66 0
d 160 3 6 12 14 17 20 2 37 43 45 48 51 58 60 63 66 0
d 161 3 6 12 14 17 20 2 37 42 57 43 45 48 51 58 60 63 66 0
d 162 3 6 12 14 17 20 1 11 2 26 33 37 43 45 48 51 58 60 63 42 57 66 0
d 163 1 2 3 6 11 12 14 17 20 26 33 37 42 43 45 48 51 57 58 60 63 66 0
4 3 0
-4 -3 0
-5 2 0
-5 4 0
5 -2 -4 0
7 6 0
-7 -6 0
-8 5 0
-8 7 0
8 -5 -7 0
9 -1 -8 0
9 1 8 0
-9 -1 8 0
-9 1 -8 0
10 9 0
-10 -9 0
13 12 0
-13 -12 0
15 14 0
-15 -14 0
-16 13 0
-16 15 0
16 -13 -15 0
18 17 0
-18 -17 0
-19 16 0
-19 18 0
19 -16 -18 0
21 20 0
-21 -20 0
-22 19 0
-22 21 0
22 -19 -21 0
23 -11 -22 0
23 11 22 0
-23 -11 22 0
-23 11 -22 0
24 23 0
-24 -23 0
25 -10 0
25 -24 0
-25 10 24 0
-27 4 0
-27 7 0
27 -4 -7 0
-28 27 0
-28 13 0
28 -27 -13 0
-29 28 0
-29 15 0
29 -28 -15 0
30 -26 -29 0
30 26 29 0
-30 -26 29 0
-30 26 -29 0
31 30 0
-31 -30 0
32 -25 0
32 -31 0
-32 25 31 0
-34 18 0
-34 21 0
34 -18 -21 0
35 2 0
-35 -2 0
-36 34 0
-36 35 0
36 -34 -35 0
-38 36 0
-38 37 0
38 -36 -37 0
39 -33 -38 0
39 33 38 0
-39 -33 38 0
-39 33 -38 0
40 39 0
-40 -39 0
41 -32 0
41 -40 0
-41 32 40 0
44 43 0
-44 -43 0
46 45 0
-46 -45 0
-47 44 0
-47 46 0
47 -44 -46 0
49 48 0
-49 -48 0
-50 47 0
-50 49 0
50 -47 -49 0
52 51 0
-52 -51 0
-53 50 0
-53 52 0
53 -50 -52 0
54 -42 -53 0
54 42 53 0
-54 -42 53 0
-54 42 -53 0
55 54 0
-55 -54 0
56 -41 0
56 -55 0
-56 41 55 0
59 58 0
-59 -58 0
61 60 0
-61 -60 0
-62 59 0
-62 61 0
62 -59 -61 0
64 63 0
-64 -63 0
-65 62 0
-65 64 0
65 -62 -64 0
-67 65 0
-67 66 0
67 -65 -66 0
68 -57 -67 0
68 57 67 0
-68 -57 67 0
-68 57 -67 0
69 68 0
-69 -68 0
70 -56 0
70 -69 0
-70 56 69 0
71 -3 -3 0
71 3 3 0
-71 -3 3 0
-71 3 -3 0
-72 4 0
-72 6 0
72 -4 -6 0
73 -72 -72 0
73 72 72 0
-73 -72 72 0
-73 72 -72 0
-74 71 0
-74 73 0
74 -71 -73 0
-75 12 0
-75 4 0
75 -12 -4 0
-76 75 0
-76 7 0
76 -75 -7 0
77 -76 -76 0
77 76 76 0
-77 -76 76 0
-77 76 -76 0
-78 74 0
-78 77 0
78 -74 -77 0
-79 28 0
-79 14 0
79 -28 -14 0
80 -79 -79 0
80 79 79 0
-80 -79 79 0
-80 79 -79 0
-81 78 0
-81 80 0
81 -78 -80 0
-82 17 0
-82 4 0
82 -17 -4 0
-83 82 0
-83 7 0
83 -82 -7 0
-84 16 0
-84 83 0
84 -16 -83 0
85 -84 -84 0
85 84 84 0
-85 -84 84 0
-85 84 -84 0
-86 81 0
-86 85 0
86 -81 -85 0
-88 87 0
-88 29 0
88 -87 -29 0
-89 18 0
-89 20 0
89 -18 -20 0
-90 89 0
-90 29 0
90 -89 -29 0
91 -88 -90 0
91 88 90 0
-91 -88 90 0
-91 88 -90 0
-92 86 0
-92 91 0
92 -86 -91 0
-94 8 0
-94 22 0
94 -8 -22 0
95 -93 -94 0
95 93 94 0
-95 -93 94 0
-95 93 -94 0
-96 92 0
-96 95 0
96 -92 -95 0
-98 29 0
-98 38 0
98 -29 -38 0
99 -97 -98 0
99 97 98 0
-99 -97 98 0
-99 97 -98 0
-100 96 0
-100 99 0
100 -96 -99 0
101 37 0
-101 -37 0
-102 35 0
-102 101 0
102 -35 -101 0
-103 43 0
-103 4 0
103 -43 -4 0
-104 103 0
-104 7 0
104 -103 -7 0
-105 102 0
-105 104 0
105 -102 -104 0
-106 22 0
-106 105 0
106 -22 -105 0
107 -106 -106 0
107 106 106 0
-107 -106 106 0
-107 106 -106 0
-108 100 0
-108 107 0
108 -100 -107 0
109 -34 102 0
109 34 -102 0
-109 -34 -102 0
-109 34 102 0
-110 44 0
-110 45 0
110 -44 -45 0
-111 110 0
-111 29 0
111 -110 -29 0
-112 109 0
-112 111 0
112 -109 -111 0
-113 36 0
-113 101 0
113 -36 -101 0
-114 113 0
-114 111 0
114 -113 -111 0
115 -112 -114 0
115 112 114 0
-115 -112 114 0
-115 112 -114 0
-116 108 0
-116 115 0
116 -108 -115 0
-117 102 0
-117 44 0
117 -102 -44 0
-118 117 0
-118 46 0
118 -117 -46 0
-119 48 0
-119 4 0
119 -48 -4 0
-120 119 0
-120 7 0
120 -119 -7 0
-121 120 0
-121 22 0
121 -120 -22 0
-122 118 0
-122 121 0
122 -118 -121 0
123 -122 -122 0
123 122 122 0
-123 -122 122 0
-123 122 -122 0
-124 116 0
-124 123 0
124 -116 -123 0
-125 50 0
-125 51 0
125 -50 -51 0
-126 29 0
-126 109 0
126 -29 -109 0
-127 125 0
-127 126 0
127 -125 -126 0
-128 29 0
-128 113 0
128 -29 -113 0
-129 125 0
-129 128 0
129 -125 -128 0
130 -127 -129 0
130 127 129 0
-130 -127 129 0
-130 127 -129 0
-131 124 0
-131 130 0
131 -124 -130 0
-132 49 0
-132 52 0
132 -49 -52 0
-133 58 0
-133 4 0
133 -58 -4 0
-134 133 0
-134 7 0
134 -133 -7 0
-135 132 0
-135 134 0
135 -132 -134 0
-136 22 0
-136 118 0
136 -22 -118 0
-137 135 0
-137 136 0
137 -135 -136 0
138 -137 -137 0
138 137 137 0
-138 -137 137 0
-138 137 -137 0
-139 131 0
-139 138 0
139 -131 -138 0
-140 59 0
-140 60 0
140 -59 -60 0
-141 140 0
-141 29 0
141 -140 -29 0
-142 109 0
-142 53 0
142 -109 -53 0
-143 141 0
-143 142 0
143 -141 -142 0
-144 113 0
-144 53 0
144 -113 -53 0
-145 141 0
-145 144 0
145 -141 -144 0
146 -143 -145 0
146 143 145 0
-146 -143 145 0
-146 143 -145 0
-147 139 0
-147 146 0
147 -139 -146 0
-148 63 0
-148 4 0
148 -63 -4 0
-149 148 0
-149 7 0
149 -148 -7 0
-150 149 0
-150 22 0
150 -149 -22 0
-151 132 0
-151 59 0
151 -132 -59 0
-152 151 0
-152 61 0
152 -151 -61 0
-153 118 0
-153 152 0
153 -118 -152 0
-154 150 0
-154 153 0
154 -150 -153 0
155 -154 -154 0
155 154 154 0
-155 -154 154 0
-155 154 -154 0
-156 147 0
-156 155 0
156 -147 -155 0
-158 126 0
-158 157 0
158 -126 -157 0
-159 53 0
-159 67 0
159 -53 -67 0
-160 128 0
-160 159 0
160 -128 -159 0
161 -158 -160 0
161 158 160 0
-161 -158 160 0
-161 158 -160 0
-162 156 0
-162 161 0
162 -156 -161 0
163 -70 0
163 -162 0
-163 70 162 0
163 0
